NAME 
ROWS
 N  OBJ
 L  R0      
 E  R1      
 E  R2      
 E  R3      
 E  R4      
 E  R5      
COLUMNS
    MARKER    'MARKER'                 'INTORG'
    I0(4)     OBJ       -90
    I0(4)     R0        -183
    I0(4)     R1        2
    I0(4)     R2        17
    I0(4)     R5        1
    I1(5)     OBJ       -7
    I1(5)     R0        -3
    I1(5)     R1        9
    I1(5)     R2        9
    I1(5)     R3        16
    I1(5)     R5        1
    I2(4)     OBJ       -160
    I2(4)     R0        -32
    I2(4)     R2        17
    I2(4)     R3        9
    I2(4)     R5        1
    MARKER    'MARKER'                 'INTEND'
    C3(4)     OBJ       -5
    C3(4)     R0        7
    C3(4)     R1        18
    C3(4)     R2        3
    C3(4)     R3        2
    C4(2)     OBJ       -3
    C4(2)     R3        18
    C4(2)     R4        4
    C5(1)     R1        1
    C6(1)     R2        1
    C7(1)     R3        1
    C8(1)     R4        1
    C9(1)     R5        1
RHS
    RHS1      R0        -1.2166666666666121e+01
    RHS1      R1        51
    RHS1      R2        92
    RHS1      R3        58
    RHS1      R4        96
    RHS1      R5        1
BOUNDS
 UP BND1      I0(4)     2
 UP BND1      I1(5)     2
 UP BND1      I2(4)     2
ENDATA
